% seed = 0

mint = 43;
% maxt = 219;

nActs = 92;
dur = [0,3,2,2,1,3,8,2,2,1,1,6,2,4,1,2,4,2,4,2,1,2,4,2,1,1,3,3,2,3,3,2,1,4,1,1,3,1,1,3,1,3,3,2,1,3,2,3,2,2,2,1,1,1,1,3,3,4,2,2,2,4,1,2,3,3,2,3,1,4,3,3,4,1,4,2,3,2,3,2,2,4,2,4,2,3,1,5,2,3,3,0];

nSkills = 12;
sreq = [| 0,0,0,0,0,0,0,0,0,0,0,0,
	| 0,0,1,0,0,0,0,0,0,0,0,0,
	| 1,0,0,0,1,1,1,0,0,0,0,1,
	| 0,0,2,0,1,0,1,0,1,0,1,0,
	| 0,0,0,0,0,0,0,0,1,0,0,0,
	| 1,0,1,0,1,1,0,0,0,1,0,0,
	| 0,0,2,1,0,1,0,0,1,0,0,0,
	| 0,0,0,0,0,1,0,0,1,0,3,0,
	| 0,0,0,0,0,0,0,0,0,1,3,0,
	| 0,0,0,0,0,0,0,1,0,0,0,0,
	| 0,0,1,0,1,1,0,0,1,0,0,1,
	| 0,0,0,0,0,0,0,0,0,1,0,0,
	| 0,0,1,0,0,0,0,0,0,1,0,0,
	| 0,1,1,0,1,0,0,0,0,0,2,1,
	| 1,0,0,0,0,0,0,0,0,0,0,0,
	| 0,0,2,0,2,0,0,0,1,0,1,0,
	| 0,0,0,0,0,0,0,0,0,0,0,1,
	| 0,0,0,0,1,1,0,1,2,0,0,0,
	| 0,0,1,0,0,1,0,0,0,0,2,1,
	| 0,0,1,0,1,0,0,1,0,0,1,0,
	| 0,0,1,0,0,0,0,0,0,1,0,0,
	| 0,0,0,1,0,0,0,0,0,0,0,0,
	| 0,0,0,0,0,0,0,1,0,0,1,0,
	| 0,1,0,0,1,1,0,0,1,1,1,0,
	| 0,0,1,1,0,0,0,1,1,0,0,1,
	| 0,0,1,0,1,1,0,0,0,0,0,0,
	| 0,0,0,0,0,0,0,1,0,0,0,0,
	| 0,0,1,0,0,0,0,0,0,0,1,1,
	| 0,0,0,0,0,0,0,1,0,0,0,0,
	| 0,1,0,1,0,0,1,0,0,0,2,0,
	| 0,0,1,0,1,1,0,0,1,0,0,0,
	| 0,0,2,0,0,0,0,0,0,1,1,0,
	| 0,0,1,0,0,0,0,0,0,0,0,0,
	| 0,0,1,0,0,0,0,0,1,0,1,1,
	| 0,0,0,0,1,0,1,0,0,0,1,1,
	| 0,1,0,1,1,0,0,0,0,2,0,0,
	| 0,0,1,0,0,2,0,1,0,0,0,0,
	| 0,0,0,0,2,0,0,1,2,0,1,0,
	| 0,1,1,0,0,1,0,1,1,0,0,0,
	| 0,0,0,1,0,0,0,0,0,0,0,0,
	| 0,0,0,0,0,0,0,0,0,0,0,1,
	| 0,1,0,1,1,0,0,0,0,2,0,1,
	| 0,0,1,0,1,0,0,0,0,0,1,0,
	| 0,0,0,2,0,0,0,1,0,1,1,0,
	| 0,0,0,0,0,0,0,0,1,1,0,0,
	| 0,0,1,0,1,1,0,0,0,0,2,0,
	| 0,0,0,0,0,0,0,1,0,0,2,0,
	| 0,0,0,0,0,0,0,0,0,0,0,1,
	| 0,0,0,0,1,0,0,0,2,0,1,0,
	| 0,0,2,0,0,0,0,1,1,0,0,0,
	| 0,0,1,0,0,0,1,0,1,0,0,0,
	| 0,1,0,0,0,0,0,0,0,0,2,0,
	| 0,0,0,0,1,1,0,1,1,0,1,0,
	| 0,0,2,1,0,1,0,0,1,0,1,0,
	| 0,0,0,0,1,0,0,0,0,0,1,0,
	| 0,0,0,0,0,1,0,0,1,0,2,0,
	| 0,0,1,0,0,0,0,0,1,1,1,0,
	| 0,0,0,0,3,0,0,1,0,0,0,0,
	| 0,0,1,0,1,1,0,0,0,1,0,0,
	| 0,0,1,0,1,0,0,1,1,0,2,0,
	| 0,0,0,0,1,0,0,0,0,0,1,0,
	| 0,0,0,1,0,0,1,0,1,1,1,0,
	| 0,0,0,1,1,1,0,0,0,0,1,0,
	| 0,0,0,0,0,1,0,0,0,0,0,0,
	| 0,0,1,0,1,0,0,0,1,1,0,0,
	| 0,0,0,0,0,1,0,0,0,0,0,0,
	| 0,0,0,0,1,0,0,0,0,0,0,0,
	| 0,0,0,0,0,1,0,0,0,0,0,0,
	| 0,0,0,0,1,0,0,1,1,0,3,0,
	| 0,0,1,0,0,0,0,0,0,0,0,0,
	| 0,0,1,0,0,1,0,2,0,0,0,0,
	| 0,0,1,0,0,2,0,1,0,0,2,0,
	| 0,0,0,0,1,0,0,0,0,0,0,0,
	| 0,0,1,0,0,0,0,0,1,1,1,0,
	| 0,0,1,0,1,1,0,0,1,1,0,1,
	| 0,0,0,0,1,0,0,0,1,1,3,0,
	| 0,0,1,0,2,0,0,0,1,1,0,0,
	| 0,0,0,0,1,1,0,0,2,0,0,0,
	| 0,0,0,0,0,1,0,0,0,1,0,0,
	| 0,0,0,1,2,0,0,0,1,2,0,0,
	| 0,0,0,0,0,0,0,1,0,0,0,0,
	| 0,0,0,0,0,1,0,0,0,0,0,0,
	| 0,2,1,0,0,0,0,0,1,1,0,0,
	| 0,0,0,0,0,0,1,0,0,0,0,0,
	| 0,0,1,0,0,0,0,0,0,0,1,0,
	| 0,0,1,1,1,0,0,0,1,0,1,1,
	| 0,0,0,0,0,1,0,1,1,0,0,1,
	| 1,0,0,0,1,0,0,0,0,1,0,0,
	| 0,0,1,1,1,1,0,1,0,0,1,0,
	| 0,0,0,0,1,0,0,0,1,0,0,0,
	| 0,0,0,0,0,0,0,0,0,2,0,0,
	| 0,0,0,0,0,0,0,0,0,0,0,0, |];

% SumOfsreq = 314;

nResources = 20;
mastery = [| false,false,false,true,true,true,false,false,false,false,false,false,
	| false,false,false,false,false,false,false,false,false,true,true,true,
	| false,false,false,true,true,true,false,false,false,false,false,false,
	| false,true,true,false,false,false,false,false,false,true,true,true,
	| false,false,true,true,true,true,false,false,false,false,true,true,
	| false,false,false,false,false,false,false,false,false,true,true,true,
	| false,false,false,false,true,true,false,false,false,false,false,false,
	| false,false,false,false,false,false,false,false,true,false,false,true,
	| false,false,true,false,false,false,false,false,false,false,true,true,
	| true,true,true,false,false,false,false,false,false,false,false,false,
	| false,false,false,false,true,true,false,false,false,false,false,false,
	| false,false,false,false,false,false,false,false,false,false,true,true,
	| false,false,false,false,false,false,false,false,false,true,true,true,
	| false,false,false,false,false,false,true,true,true,false,false,true,
	| false,false,false,false,false,false,false,false,false,false,false,true,
	| false,false,false,false,false,false,false,true,true,false,false,false,
	| false,false,true,false,false,false,false,false,false,false,false,false,
	| false,false,false,false,true,true,false,true,true,false,false,false,
	| false,true,true,false,false,false,true,true,true,false,false,false,
	| false,false,false,false,false,true,false,false,false,false,false,false, |];

nPrecs = 166;
pred = [1,1,1,2,2,2,3,3,3,4,4,4,5,6,7,7,7,8,8,8,9,9,9,10,10,10,11,11,11,12,12,12,13,13,14,15,15,16,16,17,17,18,19,19,19,20,20,21,21,21,22,22,22,23,23,23,24,24,25,26,26,27,27,28,28,28,29,30,30,31,31,31,32,32,33,33,33,34,35,35,35,36,36,37,37,37,38,38,39,39,39,40,40,40,41,41,42,42,42,43,44,45,46,46,46,47,48,48,49,50,50,51,52,53,54,55,55,56,57,57,58,59,59,59,60,61,61,61,62,63,63,64,65,66,67,67,68,68,69,69,70,70,71,71,72,73,74,75,76,76,77,78,79,80,81,82,83,84,84,85,86,87,88,89,90,91];
succ = [2,3,4,11,5,14,18,45,15,6,7,32,47,73,10,12,8,9,71,64,26,13,30,42,66,56,41,47,39,17,28,24,19,16,24,20,40,85,48,21,22,23,25,47,31,65,28,27,29,38,60,36,80,51,52,64,62,78,37,83,48,35,53,34,44,46,69,36,39,67,60,61,33,43,35,62,70,77,49,59,68,41,84,78,86,56,63,56,61,70,63,90,68,72,81,70,50,46,55,87,58,79,76,61,54,67,57,77,64,65,53,83,75,69,67,57,69,87,59,75,71,73,63,72,85,74,68,80,82,82,76,84,77,85,74,80,83,91,79,71,73,75,74,76,81,89,82,78,81,86,87,79,90,84,91,88,89,90,86,91,88,88,89,92,92,92];

nUnrels = 2760;
unpred = [2,2,2,2,2,2,2,2,2,2,2,2,2,2,2,2,2,2,2,2,2,2,2,2,2,2,2,2,2,2,2,2,2,2,2,2,2,2,2,2,2,2,2,2,2,2,2,2,2,2,2,2,2,2,2,2,2,2,2,2,3,3,3,3,3,3,3,3,3,3,3,3,3,3,3,3,3,3,3,3,3,3,3,3,3,3,3,3,3,3,3,3,3,3,3,3,3,3,3,3,3,3,3,3,3,3,3,3,3,3,4,4,4,4,4,4,4,4,4,4,4,5,5,5,5,5,5,5,5,5,5,5,5,5,5,5,5,5,5,5,5,5,5,5,5,5,5,5,5,5,5,5,5,5,5,5,5,5,5,5,5,5,5,5,5,5,5,5,5,5,5,5,5,5,5,5,5,5,5,5,5,5,5,5,5,5,5,5,5,5,5,5,5,5,5,5,5,6,6,6,6,6,6,6,6,6,6,6,6,6,6,6,6,6,6,6,6,6,6,6,6,6,6,6,6,6,6,6,6,6,6,6,6,6,6,6,6,6,6,6,6,6,6,6,6,6,6,6,6,6,6,6,6,6,6,6,6,6,6,6,6,6,6,6,6,6,6,6,6,6,6,6,6,6,6,6,6,6,6,6,7,7,7,7,7,7,7,7,7,7,7,7,7,8,8,8,8,8,8,8,8,8,8,8,8,8,8,8,8,8,8,8,8,8,8,8,8,8,8,8,8,8,8,8,8,8,8,8,8,8,8,9,9,9,9,9,9,9,9,9,9,9,9,9,9,9,9,9,9,9,9,9,9,9,9,9,9,9,9,9,9,9,9,9,9,9,9,9,9,9,9,10,10,10,10,10,10,10,10,10,10,10,10,10,10,10,10,10,10,10,10,10,10,10,10,10,10,10,10,10,10,10,10,10,10,10,10,10,10,10,10,10,10,10,10,11,11,11,11,11,11,11,11,11,11,11,11,11,11,11,11,11,11,11,11,11,11,11,11,11,11,11,11,11,11,11,11,11,11,11,11,11,11,11,11,11,11,11,11,11,11,11,11,11,11,11,11,11,11,11,11,12,12,12,12,12,12,12,12,12,12,12,12,12,12,12,12,12,12,12,12,12,12,12,12,12,12,12,12,12,13,13,13,13,13,13,13,13,13,13,13,13,13,13,13,13,13,13,13,13,13,13,13,13,13,13,13,13,13,13,13,13,13,13,13,13,13,13,13,13,13,13,13,14,14,14,14,14,14,14,14,14,14,14,14,14,14,14,14,14,14,14,14,14,14,14,14,14,14,14,14,14,14,14,14,14,14,14,14,14,14,14,14,14,14,14,14,14,14,14,14,14,14,14,14,14,14,14,14,14,14,14,14,14,14,14,14,14,14,14,14,14,15,15,15,15,15,15,15,15,15,15,15,15,15,15,15,15,15,15,15,15,15,15,15,15,15,15,15,15,15,15,15,15,15,15,15,15,15,15,15,15,15,15,15,15,15,15,15,15,16,16,16,16,16,16,16,16,16,16,16,16,16,16,16,16,16,16,16,16,16,16,16,16,16,16,16,16,16,16,16,16,16,16,16,16,16,16,16,16,16,16,16,16,16,16,16,16,16,16,16,16,16,16,16,17,17,17,17,17,17,17,17,17,17,17,17,17,17,17,17,17,17,17,17,17,17,17,17,17,17,17,17,17,17,17,17,17,17,17,17,18,18,18,18,18,18,18,18,18,18,18,18,18,18,18,18,18,18,18,18,18,18,18,18,18,18,18,18,18,18,18,18,18,18,18,18,18,18,18,18,18,18,18,18,18,18,18,18,18,18,18,18,18,18,18,18,18,18,18,18,19,19,19,19,19,19,19,19,19,19,19,19,19,19,19,19,19,19,19,19,19,19,19,19,19,19,19,19,19,19,19,19,19,19,19,19,19,19,19,19,19,19,19,19,19,19,19,19,19,20,20,20,20,20,20,20,20,20,20,20,20,20,20,20,20,20,20,20,20,20,20,20,20,20,20,20,20,20,20,20,20,20,20,20,20,20,20,20,20,20,20,20,20,20,20,21,21,21,21,21,21,21,21,21,21,21,21,21,21,21,21,21,21,21,21,21,21,21,21,21,21,21,21,21,21,21,21,21,21,21,21,21,21,21,21,21,21,22,22,22,22,22,22,22,22,22,22,22,22,22,22,22,22,22,22,22,22,22,22,22,22,22,22,22,22,22,22,22,22,22,22,22,22,22,22,22,22,22,22,22,22,22,22,22,22,22,22,22,22,23,23,23,23,23,23,23,23,23,23,23,23,23,23,23,23,23,23,23,23,23,23,23,23,23,23,23,23,23,23,23,23,23,23,23,23,23,23,23,23,23,23,23,23,23,23,23,23,23,23,23,23,23,23,23,23,24,24,24,24,24,24,24,24,24,24,24,24,24,24,24,24,24,24,24,24,24,24,24,24,24,24,24,24,24,24,24,24,24,24,24,24,24,24,24,24,24,24,24,24,24,24,24,24,24,24,24,24,24,24,24,24,24,24,24,24,25,25,25,25,25,25,25,25,25,25,25,25,25,25,25,25,25,25,25,25,25,25,25,25,25,25,25,25,25,25,25,25,25,25,25,25,25,25,25,25,25,25,25,25,25,25,25,25,25,25,25,25,25,25,25,25,25,26,26,26,26,26,26,26,26,26,26,26,26,26,26,26,26,26,26,26,26,26,26,26,26,26,26,26,26,26,26,26,26,26,26,26,26,26,26,26,26,26,26,26,26,26,27,27,27,27,27,27,27,27,27,27,27,27,27,27,27,27,27,27,27,27,27,27,27,27,27,27,27,27,27,27,27,27,27,27,27,27,27,27,27,27,27,28,28,28,28,28,28,28,28,28,28,28,28,28,28,28,28,28,28,28,28,28,28,28,28,28,28,28,28,28,28,28,28,28,28,28,28,28,28,28,28,29,29,29,29,29,29,29,29,29,29,29,29,29,29,29,29,29,29,29,29,29,29,29,29,29,29,29,29,29,29,29,29,29,29,29,29,29,29,29,29,29,29,29,29,29,29,29,29,29,29,30,30,30,30,30,30,30,30,30,30,30,30,30,30,30,30,30,30,30,30,30,30,30,30,30,30,30,30,30,30,30,30,30,30,30,30,30,30,31,31,31,31,31,31,31,31,31,31,31,31,31,31,31,31,31,31,31,31,31,31,31,31,31,31,31,31,31,31,31,31,31,31,31,31,31,31,31,31,31,31,31,31,31,32,32,32,32,32,32,32,32,32,32,32,32,32,32,32,32,32,32,32,32,32,32,32,32,32,32,32,32,32,32,32,32,32,33,33,33,33,33,33,33,33,33,33,33,33,33,33,33,33,33,33,33,33,33,33,33,33,33,33,33,33,33,33,33,33,33,33,33,34,34,34,34,34,34,34,34,34,34,34,34,34,34,34,34,34,34,34,34,34,34,34,34,34,34,34,34,34,34,34,34,34,34,34,34,34,34,34,34,34,34,34,34,34,34,34,34,34,34,34,34,34,35,35,35,35,35,35,35,35,35,35,35,35,35,35,35,35,35,35,35,35,35,35,35,35,35,35,35,35,35,35,35,35,35,35,35,35,35,35,35,36,36,36,36,36,36,36,36,36,36,36,36,36,36,36,36,36,36,36,36,36,36,36,36,36,36,36,36,36,36,36,36,36,36,36,36,36,36,36,36,36,36,37,37,37,37,37,37,37,37,37,37,37,37,37,37,37,37,37,37,37,37,37,37,37,37,37,37,37,37,37,37,37,37,37,37,37,37,37,37,37,37,37,37,37,37,37,37,38,38,38,38,38,38,38,38,38,38,38,38,38,38,38,38,38,38,38,38,38,38,38,38,38,38,38,38,38,38,38,38,38,38,38,38,38,38,38,38,38,38,38,39,39,39,39,39,39,39,39,39,39,39,39,39,39,39,39,39,39,39,39,39,39,39,39,39,39,39,39,39,39,39,39,40,40,40,40,40,40,40,40,40,40,40,40,40,40,40,40,40,40,40,40,40,40,40,40,40,40,40,40,40,40,40,40,40,40,40,40,40,40,40,40,40,40,40,40,41,41,41,41,41,41,41,41,41,41,41,41,41,41,41,41,41,41,41,41,41,41,41,41,41,41,41,41,41,41,41,41,41,41,41,41,41,41,41,41,41,42,42,42,42,42,42,42,42,42,42,42,42,42,42,42,42,43,43,43,43,43,43,43,43,43,43,43,43,43,43,43,43,43,43,43,43,43,43,43,43,43,43,43,43,43,43,43,43,43,43,43,43,43,43,43,43,43,43,43,43,43,44,44,44,44,44,44,44,44,44,44,44,44,44,44,44,44,44,44,44,44,44,44,44,44,44,44,44,44,44,44,44,44,44,44,44,44,44,45,45,45,45,45,45,45,45,45,45,45,45,45,45,45,45,45,45,45,45,45,45,45,45,45,45,45,45,45,45,45,45,45,45,45,45,45,45,45,45,45,45,45,45,46,46,46,46,46,46,46,46,46,46,46,46,46,46,46,46,46,46,46,46,46,46,46,46,46,46,46,46,46,47,47,47,47,47,47,47,47,47,47,47,47,47,47,47,47,47,47,47,47,47,47,47,47,47,47,47,47,47,47,47,47,47,47,47,48,48,48,48,48,48,48,48,48,48,48,48,48,48,48,48,48,48,48,48,48,48,48,48,48,49,49,49,49,49,49,49,49,49,49,49,49,49,49,49,49,49,49,49,49,49,49,49,49,49,49,49,49,49,49,49,49,49,49,49,49,50,50,50,50,50,50,50,50,50,50,50,50,50,50,50,50,50,50,50,50,50,50,50,50,50,51,51,51,51,51,51,51,51,51,51,51,51,51,51,51,51,51,51,51,51,51,51,51,51,51,51,51,51,51,51,51,51,51,51,51,51,51,51,52,52,52,52,52,52,52,52,52,52,52,52,52,52,52,52,52,52,52,52,52,52,52,52,52,52,52,52,52,52,52,52,52,52,52,53,53,53,53,53,53,53,53,53,53,53,53,53,53,53,53,53,53,53,53,53,53,53,53,53,53,54,54,54,54,54,54,54,54,54,54,54,54,54,54,54,54,54,54,54,54,54,54,54,54,54,54,54,54,55,55,55,55,55,55,55,55,55,55,55,55,55,55,55,55,55,56,56,56,56,56,56,56,56,56,56,56,56,56,56,56,56,56,56,56,56,56,56,56,56,56,56,56,56,56,56,56,56,57,57,57,57,57,57,57,57,57,57,57,57,57,57,57,57,57,57,57,58,58,58,58,58,58,58,58,58,58,58,58,58,58,58,58,58,58,58,58,58,58,58,58,59,59,59,59,59,59,59,59,59,59,59,59,59,59,59,59,59,59,59,59,59,59,60,60,60,60,60,60,60,60,60,60,60,60,60,60,60,60,60,60,60,60,60,60,60,60,60,60,60,60,60,61,61,61,61,61,61,61,61,61,61,61,61,61,61,61,61,61,61,61,62,62,62,62,62,62,62,62,62,62,62,62,62,62,62,62,62,62,62,62,62,62,62,62,62,62,63,63,63,63,63,63,63,63,63,63,63,63,63,63,63,63,63,63,63,63,63,64,64,64,64,64,64,64,64,64,64,64,64,64,64,64,64,64,64,64,64,64,64,65,65,65,65,65,65,65,65,65,65,65,65,65,65,65,65,65,65,65,65,65,65,66,66,66,66,66,66,66,66,66,66,66,66,66,66,66,66,66,66,66,66,66,66,66,67,67,67,67,67,67,67,67,67,67,67,67,67,67,67,67,68,68,68,68,68,68,68,68,68,68,68,68,68,68,68,68,68,68,68,68,69,69,69,69,69,69,69,69,69,69,69,70,70,70,70,70,70,70,70,70,70,70,70,70,70,70,71,71,71,71,71,71,71,71,71,71,71,71,72,72,72,72,72,72,72,72,72,72,72,72,72,72,72,72,72,73,73,73,73,73,73,73,73,73,73,73,73,73,73,73,73,73,74,74,74,74,74,74,74,74,74,74,74,74,74,74,75,75,75,75,75,75,75,75,75,75,75,75,75,76,76,76,76,76,76,76,76,76,76,77,77,77,77,77,77,77,77,77,77,77,78,78,78,78,78,78,78,78,78,78,78,79,79,79,79,79,79,79,79,79,79,79,80,80,80,80,80,80,81,81,81,81,81,81,81,81,81,82,82,82,82,82,82,82,83,83,83,83,83,83,83,84,84,84,85,85,85,85,85,86,86,86,87,87,88,88,89,89,90];
unsucc = [3,4,6,7,8,9,10,12,13,15,16,17,18,19,20,21,22,23,25,26,27,28,29,30,31,32,33,34,35,36,37,38,40,42,43,44,45,46,48,49,50,51,52,53,54,55,56,57,58,59,60,64,65,66,69,71,72,77,85,87,4,5,6,7,8,9,10,11,12,13,14,16,17,19,21,22,24,25,26,27,29,30,31,32,33,35,36,37,38,39,41,42,43,47,48,49,50,53,55,56,57,59,60,62,63,66,69,70,73,85,5,11,14,15,18,20,23,40,45,51,52,6,7,8,9,10,11,12,13,14,15,16,17,18,19,20,21,22,23,24,25,26,27,28,29,30,31,32,33,34,35,36,37,38,39,40,41,42,43,44,45,46,48,49,50,51,52,53,54,55,56,57,58,59,60,61,62,63,64,65,66,68,69,70,71,72,73,75,76,77,78,79,81,83,85,87,91,7,8,9,10,11,12,13,14,15,16,17,18,19,20,21,22,23,24,25,26,27,28,29,30,31,32,33,34,35,36,37,38,39,40,41,42,43,44,45,46,47,48,49,50,51,52,53,54,55,56,57,58,59,60,61,62,63,64,65,66,67,68,69,70,71,72,74,75,76,77,78,79,80,81,82,83,84,85,86,87,88,90,91,11,14,15,18,20,23,32,33,40,43,45,51,52,10,11,12,14,15,17,18,20,21,22,23,24,27,28,29,32,33,34,35,38,40,42,43,44,45,46,49,50,51,52,53,54,55,58,62,65,66,69,10,11,12,14,15,17,18,20,21,22,23,24,27,28,29,32,33,34,35,38,40,42,43,44,45,46,49,50,51,52,53,54,55,58,62,64,65,66,69,71,11,12,13,14,15,16,17,18,19,20,21,22,23,24,25,26,27,28,29,30,31,32,33,34,35,36,37,38,39,40,41,43,44,45,47,48,49,51,52,58,60,62,64,70,12,13,14,15,16,17,18,19,20,21,22,23,24,25,26,27,28,29,30,31,32,33,34,35,36,37,38,40,42,43,44,45,46,48,49,50,51,52,53,54,55,56,57,58,59,60,62,64,65,66,69,71,72,77,85,87,13,14,15,16,18,19,20,23,25,26,30,31,32,33,37,39,40,42,43,45,47,48,50,51,52,55,57,65,66,14,15,17,18,20,21,22,23,24,26,27,28,29,30,32,33,34,35,36,38,39,40,41,42,43,44,45,46,49,50,51,52,53,54,55,58,62,64,65,66,69,70,71,15,16,17,18,19,20,21,22,23,25,26,27,28,29,30,31,32,33,34,35,36,37,38,39,40,41,42,43,44,45,46,47,48,49,50,51,52,53,54,55,56,57,58,59,60,61,63,64,65,66,67,68,69,70,71,72,73,74,75,76,77,80,81,83,84,85,86,87,91,16,17,18,19,21,22,23,24,25,26,27,29,30,31,32,33,35,36,37,38,39,41,42,43,45,47,48,49,50,51,52,53,55,56,57,59,60,62,63,64,66,69,70,73,75,78,79,85,17,18,19,20,21,22,23,24,25,26,27,28,29,30,31,32,33,34,35,36,37,38,39,40,41,42,43,44,45,46,47,49,50,51,52,53,54,55,56,58,60,61,62,64,65,66,67,68,69,70,71,74,80,83,84,18,19,20,23,24,25,26,28,30,31,32,33,34,37,39,40,42,43,44,45,46,47,48,50,51,52,54,55,57,58,61,62,65,66,67,77,19,20,21,22,24,25,26,27,28,29,30,31,32,33,34,35,36,37,38,39,40,41,42,43,44,45,46,47,48,49,50,53,54,55,56,57,58,59,60,61,62,63,65,66,67,68,69,70,71,72,73,74,76,77,80,81,82,85,87,91,20,21,22,23,24,26,27,28,29,30,32,33,34,35,36,38,39,40,41,42,43,44,45,46,48,49,50,51,52,53,54,55,57,58,59,62,63,64,65,66,69,70,71,72,73,75,76,77,81,21,22,23,24,25,26,27,29,30,31,32,33,35,36,37,38,39,40,41,42,43,45,47,48,49,50,51,52,53,55,56,57,59,60,62,63,64,66,69,70,72,73,75,78,79,85,22,23,24,25,26,28,30,31,32,33,34,36,37,39,40,41,42,43,44,45,46,47,48,50,51,52,54,55,57,58,60,61,62,65,66,67,70,75,77,78,80,85,23,24,25,26,27,28,29,30,31,32,33,34,35,37,38,39,40,42,43,44,45,46,47,48,49,50,51,52,53,54,55,56,57,58,59,61,62,63,64,65,66,67,68,69,71,72,74,76,77,82,83,87,24,25,26,27,28,29,30,31,32,33,34,35,36,37,38,39,40,41,42,43,44,45,46,47,48,49,50,53,54,55,56,57,58,59,60,61,62,63,65,66,67,68,69,70,71,72,73,74,76,77,80,81,82,85,87,91,25,26,27,28,29,30,31,32,33,34,35,36,37,38,39,40,41,42,43,44,45,46,47,48,49,50,51,52,53,54,55,56,57,58,59,60,61,63,64,65,66,67,68,69,70,71,72,73,74,75,76,77,80,81,83,84,85,86,87,91,26,27,28,29,30,31,32,33,34,35,36,38,39,40,41,42,43,44,45,46,47,48,49,50,51,52,53,54,55,57,58,59,60,61,62,63,64,65,66,67,68,69,70,71,72,73,74,75,76,77,80,81,82,83,84,85,91,27,28,29,30,31,32,33,34,35,36,37,38,39,40,41,42,43,44,45,46,47,49,50,51,52,53,54,55,56,58,60,61,62,64,65,66,67,68,69,70,71,74,80,84,85,28,29,30,31,32,33,34,36,37,38,39,40,41,42,43,44,45,46,47,48,50,51,52,54,55,56,57,58,60,61,62,65,66,67,70,75,77,78,80,85,87,29,30,31,32,33,35,36,37,38,39,40,41,42,43,45,47,48,49,50,51,52,53,55,56,57,59,60,62,63,64,65,66,69,70,72,73,75,78,79,85,30,31,32,33,34,35,36,37,38,39,40,41,42,43,44,45,46,47,48,49,50,51,52,53,54,55,56,57,58,59,60,61,62,63,64,65,66,67,68,70,72,73,75,77,78,80,83,84,85,87,31,32,33,34,35,37,38,40,42,43,44,45,46,47,48,49,50,51,52,53,54,55,56,57,58,59,60,62,64,65,66,67,69,71,72,77,85,87,32,33,34,35,36,37,38,39,40,41,42,43,44,45,46,47,48,49,50,51,52,53,54,55,56,57,58,59,62,63,64,65,66,69,70,71,72,73,75,76,77,78,79,81,87,34,36,37,38,39,40,41,42,44,45,46,47,48,50,51,52,53,54,55,56,57,58,60,61,65,66,67,69,71,74,77,80,85,34,36,37,38,39,40,41,42,43,44,45,46,47,48,50,51,52,53,54,55,56,57,58,60,61,65,66,67,69,71,74,77,80,85,87,35,36,37,38,39,40,41,42,43,44,45,46,47,48,49,50,51,52,53,54,55,56,57,58,59,60,61,62,63,64,65,66,67,68,69,70,71,72,73,74,75,76,78,79,80,81,82,83,84,85,86,90,91,36,37,38,39,40,41,42,43,44,45,46,47,48,50,51,52,53,54,55,56,57,58,60,61,62,65,66,67,69,70,71,74,75,77,78,79,80,85,87,37,38,39,40,42,43,44,45,46,47,48,49,50,51,52,53,54,55,56,57,58,59,60,61,62,63,64,65,66,67,68,69,71,72,74,76,77,80,82,83,85,87,38,39,40,41,42,43,44,45,46,47,48,49,50,51,52,53,54,55,57,58,59,60,61,62,63,64,65,66,67,68,69,70,71,72,73,74,75,76,77,80,81,82,83,84,85,91,39,40,41,42,43,44,45,46,47,48,49,50,51,52,53,54,55,57,58,59,60,61,62,64,65,66,67,68,69,70,71,72,73,74,75,77,78,79,80,83,84,85,90,40,41,42,43,44,45,46,47,48,49,50,51,52,53,54,55,56,57,58,59,60,62,64,65,66,67,69,71,72,77,85,87,41,42,43,44,45,46,47,48,49,50,51,52,53,54,55,56,57,58,59,60,61,62,63,64,65,66,67,69,70,71,73,74,75,76,77,78,79,80,82,84,85,86,87,88,42,43,44,45,46,47,48,49,50,51,52,53,54,55,56,57,58,59,60,61,62,63,64,65,66,67,68,69,71,72,74,76,77,80,82,83,84,85,86,87,88,43,44,45,47,48,49,51,52,56,58,60,62,64,66,70,85,44,45,46,47,48,49,50,51,52,53,54,55,56,57,58,59,60,61,62,63,64,65,66,67,68,69,70,71,72,73,74,75,76,77,78,79,80,81,82,83,84,85,86,90,91,45,46,47,48,49,50,51,52,53,54,55,56,57,59,60,61,62,63,64,65,66,67,68,69,70,72,73,75,77,78,79,80,83,84,85,87,90,46,47,48,49,50,51,52,53,54,55,56,57,58,59,60,61,62,63,64,65,66,67,68,69,70,71,72,73,74,75,76,77,78,80,81,82,83,84,85,86,87,88,89,91,47,48,49,50,51,52,53,55,56,57,58,59,60,62,63,64,65,66,69,70,71,72,73,75,77,78,79,85,87,48,49,50,51,52,53,54,55,56,57,58,59,60,61,62,63,64,65,66,68,69,70,71,72,73,75,76,77,78,79,81,83,85,87,91,49,50,51,52,53,54,55,56,58,60,61,62,64,65,66,67,68,69,70,71,74,80,83,84,85,50,51,52,53,54,55,56,57,58,59,60,61,62,63,65,66,67,68,69,70,71,72,73,74,75,76,77,78,79,80,81,82,83,85,87,91,51,52,54,55,56,57,58,59,60,61,62,63,64,66,67,68,70,72,73,75,78,80,83,84,85,52,53,54,55,56,57,58,59,60,61,62,63,64,65,66,67,68,69,70,71,72,73,74,75,76,77,78,79,80,81,82,84,85,86,87,88,90,91,53,54,55,56,57,58,59,60,61,62,63,64,65,66,67,68,69,70,71,72,73,74,76,77,80,81,82,83,84,85,86,87,88,89,91,54,55,56,57,58,59,60,61,62,63,64,65,66,67,68,70,72,73,75,77,78,80,83,84,85,87,55,56,57,58,59,60,61,62,63,64,65,66,68,69,70,71,72,73,75,76,77,78,79,81,83,85,87,91,56,58,60,61,62,64,65,66,67,68,70,77,80,83,84,85,87,57,58,59,60,61,62,63,64,65,66,67,68,69,70,71,72,73,74,75,76,77,78,79,80,81,82,83,84,85,86,90,91,58,60,61,62,64,65,66,67,68,69,70,71,74,77,80,83,84,85,87,59,60,61,62,63,64,65,66,67,68,69,70,72,73,75,77,78,79,80,83,84,85,87,90,60,61,62,64,65,66,67,68,69,70,71,74,75,77,78,79,80,83,84,85,87,90,61,62,63,64,65,66,67,68,69,70,71,72,73,74,75,76,77,78,79,80,81,82,83,84,86,87,88,89,90,62,63,64,65,66,67,69,70,71,72,73,75,76,77,78,79,81,85,87,63,64,65,66,67,68,69,70,71,72,73,74,75,76,77,78,79,80,81,83,84,85,86,87,90,91,64,65,66,67,68,69,70,71,72,73,74,75,77,78,79,80,83,84,85,87,90,65,66,67,68,69,70,71,72,73,74,75,76,77,78,79,80,81,82,83,85,87,91,66,67,68,69,70,71,72,73,74,75,76,78,79,80,81,82,83,84,85,86,90,91,67,68,69,70,71,72,73,74,75,76,77,78,79,80,81,82,83,84,86,87,88,89,90,68,69,70,71,72,73,75,76,77,78,79,81,83,85,87,91,69,70,71,72,73,74,75,76,77,78,79,80,81,82,84,85,86,87,88,90,70,72,73,75,77,78,80,83,84,85,87,71,72,74,76,77,80,81,82,83,84,85,86,87,88,91,72,73,75,77,78,79,80,83,84,85,87,90,73,74,75,76,77,78,79,80,82,83,84,85,86,87,88,89,90,74,75,76,77,78,79,80,81,82,83,84,85,86,87,88,90,91,75,76,77,78,79,80,81,83,84,85,86,87,90,91,76,77,80,81,82,83,84,85,86,87,88,89,91,77,78,79,80,82,83,84,85,87,90,78,79,80,81,82,83,84,85,86,90,91,80,81,82,83,84,85,86,87,88,89,91,80,81,82,83,84,85,86,87,88,89,91,81,82,83,85,87,91,82,83,84,85,86,87,88,89,90,83,84,85,86,87,90,91,84,85,86,87,88,90,91,85,87,91,86,87,88,89,90,87,90,91,90,91,90,91,90,91,91];

USEFUL_RES = [{},
	{4,5,9,10,17,19},
	{1,2,3,4,5,6,7,8,9,10,11,12,13,14,15,18,19,20},
	{1,2,3,4,5,6,7,8,9,10,11,12,13,14,16,17,18,19},
	{8,14,16,18,19},
	{1,2,3,4,5,6,7,9,10,11,13,17,18,19,20},
	{1,3,4,5,7,8,9,10,11,14,16,17,18,19,20},
	{1,2,3,4,5,6,7,8,9,11,12,13,14,16,18,19,20},
	{2,4,5,6,9,12,13},
	{14,16,18,19},
	{1,2,3,4,5,6,7,8,9,10,11,12,13,14,15,16,17,18,19,20},
	{2,4,6,13},
	{2,4,5,6,9,10,13,17,19},
	{1,2,3,4,5,6,7,8,9,10,11,12,13,14,15,17,18,19},
	{10},
	{1,2,3,4,5,6,7,8,9,10,11,12,13,14,16,17,18,19},
	{2,4,5,6,8,9,12,13,14,15},
	{1,3,5,7,8,11,14,16,18,19,20},
	{1,2,3,4,5,6,7,8,9,10,11,12,13,14,15,17,18,19,20},
	{1,2,3,4,5,6,7,9,10,11,12,13,14,16,17,18,19},
	{2,4,5,6,9,10,13,17,19},
	{1,3,5},
	{2,4,5,6,9,12,13,14,16,18,19},
	{1,2,3,4,5,6,7,8,9,10,11,12,13,14,16,18,19,20},
	{1,2,3,4,5,6,8,9,10,12,13,14,15,16,17,18,19},
	{1,3,4,5,7,9,10,11,17,18,19,20},
	{14,16,18,19},
	{2,4,5,6,8,9,10,12,13,14,15,17,19},
	{14,16,18,19},
	{1,2,3,4,5,6,9,10,12,13,14,19},
	{1,3,4,5,7,8,9,10,11,14,16,17,18,19,20},
	{2,4,5,6,9,10,12,13,17,19},
	{4,5,9,10,17,19},
	{2,4,5,6,8,9,10,12,13,14,15,16,17,18,19},
	{1,2,3,4,5,6,7,8,9,11,12,13,14,15,18,19},
	{1,2,3,4,5,6,7,10,11,13,18,19},
	{1,3,4,5,7,9,10,11,14,16,17,18,19,20},
	{1,2,3,4,5,6,7,8,9,11,12,13,14,16,18,19},
	{1,3,4,5,7,8,9,10,11,14,16,17,18,19,20},
	{1,3,5},
	{2,4,5,6,8,9,12,13,14,15},
	{1,2,3,4,5,6,7,8,9,10,11,12,13,14,15,18,19},
	{1,2,3,4,5,6,7,9,10,11,12,13,17,18,19},
	{1,2,3,4,5,6,9,12,13,14,16,18,19},
	{2,4,6,8,13,14,16,18,19},
	{1,2,3,4,5,6,7,9,10,11,12,13,17,18,19,20},
	{2,4,5,6,9,12,13,14,16,18,19},
	{2,4,5,6,8,9,12,13,14,15},
	{1,2,3,4,5,6,7,8,9,11,12,13,14,16,18,19},
	{4,5,8,9,10,14,16,17,18,19},
	{4,5,8,9,10,14,16,17,18,19},
	{2,4,5,6,9,10,12,13,19},
	{1,2,3,4,5,6,7,8,9,11,12,13,14,16,18,19,20},
	{1,2,3,4,5,6,7,8,9,10,11,12,13,14,16,17,18,19,20},
	{1,2,3,4,5,6,7,9,11,12,13,18},
	{1,2,3,4,5,6,7,8,9,11,12,13,14,16,18,19,20},
	{2,4,5,6,8,9,10,12,13,14,16,17,18,19},
	{1,3,5,7,11,14,16,18,19},
	{1,2,3,4,5,6,7,9,10,11,13,17,18,19,20},
	{1,2,3,4,5,6,7,8,9,10,11,12,13,14,16,17,18,19},
	{1,2,3,4,5,6,7,9,11,12,13,18},
	{1,2,3,4,5,6,8,9,12,13,14,16,18,19},
	{1,2,3,4,5,6,7,9,11,12,13,18,20},
	{1,3,5,7,11,18,20},
	{1,2,3,4,5,6,7,8,9,10,11,13,14,16,17,18,19},
	{1,3,5,7,11,18,20},
	{1,3,5,7,11,18},
	{1,3,5,7,11,18,20},
	{1,2,3,4,5,6,7,8,9,11,12,13,14,16,18,19},
	{4,5,9,10,17,19},
	{1,3,4,5,7,9,10,11,14,16,17,18,19,20},
	{1,2,3,4,5,6,7,9,10,11,12,13,14,16,17,18,19,20},
	{1,3,5,7,11,18},
	{2,4,5,6,8,9,10,12,13,14,16,17,18,19},
	{1,2,3,4,5,6,7,8,9,10,11,12,13,14,15,16,17,18,19,20},
	{1,2,3,4,5,6,7,8,9,11,12,13,14,16,18,19},
	{1,2,3,4,5,6,7,8,9,10,11,13,14,16,17,18,19},
	{1,3,5,7,8,11,14,16,18,19,20},
	{1,2,3,4,5,6,7,11,13,18,20},
	{1,2,3,4,5,6,7,8,11,13,14,16,18,19},
	{14,16,18,19},
	{1,3,5,7,11,18,20},
	{2,4,5,6,8,9,10,13,14,16,17,18,19},
	{14,19},
	{2,4,5,6,9,10,12,13,17,19},
	{1,2,3,4,5,6,7,8,9,10,11,12,13,14,15,16,17,18,19},
	{1,2,3,4,5,6,7,8,9,11,12,13,14,15,16,18,19,20},
	{1,2,3,4,5,6,7,10,11,13,18},
	{1,2,3,4,5,6,7,9,10,11,12,13,14,16,17,18,19,20},
	{1,3,5,7,8,11,14,16,18,19},
	{2,4,6,13},
	{}];

POTENTIAL_ACT = [{3,4,6,7,8,11,14,16,18,19,20,22,24,25,26,30,31,35,36,37,38,39,40,42,43,44,46,49,53,54,55,56,58,59,60,61,62,63,64,65,66,67,68,69,71,72,73,75,76,77,78,79,80,82,86,87,88,89,90},
	{3,4,6,8,9,11,12,13,14,16,17,19,20,21,23,24,25,28,30,32,34,35,36,38,41,42,43,44,45,46,47,48,49,52,53,54,55,56,57,59,60,61,62,63,65,69,72,74,75,76,77,79,80,83,85,86,87,88,89,91},
	{3,4,6,7,8,11,14,16,18,19,20,22,24,25,26,30,31,35,36,37,38,39,40,42,43,44,46,49,53,54,55,56,58,59,60,61,62,63,64,65,66,67,68,69,71,72,73,75,76,77,78,79,80,82,86,87,88,89,90},
	{2,3,4,6,7,8,9,11,12,13,14,16,17,19,20,21,23,24,25,26,28,30,31,32,33,34,35,36,37,38,39,41,42,43,44,45,46,47,48,49,50,51,52,53,54,55,56,57,59,60,61,62,63,65,69,70,71,72,74,75,76,77,79,80,83,85,86,87,88,89,91},
	{2,3,4,6,7,8,9,11,13,14,16,17,18,19,20,21,22,23,24,25,26,28,30,31,32,33,34,35,36,37,38,39,40,41,42,43,44,46,47,48,49,50,51,52,53,54,55,56,57,58,59,60,61,62,63,64,65,66,67,68,69,70,71,72,73,74,75,76,77,78,79,80,82,83,85,86,87,88,89,90},
	{3,4,6,8,9,11,12,13,14,16,17,19,20,21,23,24,25,28,30,32,34,35,36,38,41,42,43,44,45,46,47,48,49,52,53,54,55,56,57,59,60,61,62,63,65,69,72,74,75,76,77,79,80,83,85,86,87,88,89,91},
	{3,4,6,7,8,11,14,16,18,19,20,24,26,31,35,36,37,38,39,42,43,46,49,53,54,55,56,58,59,60,61,63,64,65,66,67,68,69,71,72,73,75,76,77,78,79,80,82,86,87,88,89,90},
	{3,4,5,7,8,11,14,16,17,18,19,24,25,28,31,34,35,38,39,41,42,45,48,49,50,51,53,54,56,57,60,62,65,69,74,75,76,77,78,80,83,86,87,90},
	{2,3,4,6,7,8,9,11,13,14,16,17,19,20,21,23,24,25,26,28,30,31,32,33,34,35,37,38,39,41,42,43,44,46,47,48,49,50,51,52,53,54,55,56,57,59,60,61,62,63,65,69,70,71,72,74,75,76,77,83,85,86,87,89},
	{2,3,4,6,7,11,13,14,15,16,19,20,21,24,25,26,28,30,31,32,33,34,36,37,39,42,43,46,50,51,52,54,57,59,60,65,70,71,72,74,75,77,83,85,86,88,89},
	{3,4,6,7,8,11,14,16,18,19,20,24,26,31,35,36,37,38,39,42,43,46,49,53,54,55,56,58,59,60,61,63,64,65,66,67,68,69,71,72,73,75,76,77,78,79,80,82,86,87,88,89,90},
	{3,4,8,9,11,14,16,17,19,20,23,24,25,28,30,32,34,35,38,41,42,43,44,46,47,48,49,52,53,54,55,56,57,60,61,62,63,69,72,74,75,76,85,86,87,89},
	{3,4,6,8,9,11,12,13,14,16,17,19,20,21,23,24,25,28,30,32,34,35,36,38,41,42,43,44,45,46,47,48,49,52,53,54,55,56,57,59,60,61,62,63,65,69,72,74,75,76,77,79,80,83,85,86,87,88,89,91},
	{3,4,5,7,8,10,11,14,16,17,18,19,20,23,24,25,27,28,29,30,31,34,35,37,38,39,41,42,44,45,47,48,49,50,51,53,54,56,57,58,60,62,65,69,71,72,74,75,76,77,78,80,81,83,84,86,87,89,90},
	{3,11,14,17,19,25,28,34,35,41,42,48,75,86,87},
	{4,5,7,8,10,11,16,18,20,23,24,25,27,29,31,34,37,38,39,44,45,47,49,50,51,53,54,56,57,58,60,62,65,69,71,72,74,75,76,77,78,80,81,83,86,87,89,90},
	{2,4,6,7,11,13,14,16,19,20,21,25,26,28,31,32,33,34,37,39,43,46,50,51,54,57,59,60,65,70,71,72,74,75,77,83,85,86,89},
	{3,4,5,6,7,8,10,11,14,16,18,19,20,23,24,25,26,27,29,31,34,35,36,37,38,39,42,43,44,45,46,47,49,50,51,53,54,55,56,57,58,59,60,61,62,63,64,65,66,67,68,69,71,72,73,74,75,76,77,78,79,80,81,82,83,86,87,88,89,90},
	{2,3,4,5,6,7,8,10,11,13,14,16,18,19,20,21,23,24,25,26,27,28,29,30,31,32,33,34,35,36,37,38,39,42,43,44,45,46,47,49,50,51,52,53,54,56,57,58,59,60,62,65,69,70,71,72,74,75,76,77,78,80,81,83,84,85,86,87,89,90},
	{3,6,7,8,11,18,19,24,26,31,37,39,46,53,54,56,59,63,64,66,68,71,72,75,78,79,82,87,89}];
